(set-info :smt-lib-version 2.6)
(set-logic QF_FP)
(set-option :produce-models true)
(set-info :source |Random FP created by PyMPF|)
(set-info :license |https://www.gnu.org/licenses/gpl-3.0.html|)
(set-info :category random)
(set-info :status sat)
(declare-const x Float32)
(assert (= x (fp #b1 #b11111110 #b11111111111111111111111)))
;; x should be Float32(0xFF7FFFFF [Rational(-340282346638528859811704183484516925440), -340282346638528859811704183484516925440.000000])

(declare-const y Float32)
(assert (= y (fp #b0 #b10010101 #b10000010101111110100001)))
;; y should be Float32(0x4AC15FA1 [Rational(12672929, 2), 6336464.500000])

(declare-const z Float32)
(assert (= z (fp #b1 #b10010100 #b10101001111100100010010)))
;; z should be Float32(0xCA54F912 [Rational(-6978697, 2), -3489348.500000])

(declare-const result Float32)
(assert (= result (fp.fma RNA x y z)))
(assert (= result ((_ to_fp 8 24) #xFF800000)))
(check-sat)
(exit)
